11,0	0,0	17,6	7,6	0,0	0,0	0,0	0,0	0,0	9,3
18,8	14,8	0,0	12,7	13,7	0,0	0,0	19,5	0,0	0,0
0,0	0,0	16,7	0,0	17,8	16,9	0,0	0,0	17,2	0,0
17,8	0,0	18,8	0,0	0,0	0,0	10,1	0,0	0,0	0,0
0,0	14,1	0,0	17,0	7,8	0,0	0,0	14,7	0,0	0,0
0,0	8,6	12,7	0,0	6,1	14,1	0,0	0,0	14,1	0,0
0,0	17,8	0,0	11,1	0,0	0,0	18,5	0,0	0,0	14,0
17,8	0,0	11,7	0,0	0,0	0,0	0,0	0,0	0,0	6,2
0,0	7,6	0,0	14,2	16,9	0,0	0,0	5,5	0,0	0,0
0,0	0,0	7,1	0,0	0,0	16,7	13,5	0,0	0,0	14,6
0,0	15,0	0,0	0,0	17,3	0,0	7,9	0,0	17,6	18,0
18,7	0,0	15,0	0,0	16,4	0,0	8,2	8,3	19,8	0,0
0,0	9,4	0,0	0,0	0,0	15,0	0,0	11,3	18,9	19,3
18,9	15,5	12,8	0,0	0,0	6,7	0,0	19,5	12,0	0,0
13,6	0,0	6,3	0,0	5,5	5,5	15,5	15,4	0,0	0,0
0,0	12,9	0,0	5,4	0,0	12,5	0,0	9,5	0,0	0,0
10,2	0,0	8,4	8,4	9,5	0,0	0,0	17,6	0,0	0,0
0,0	0,0	15,0	0,0	0,0	15,3	8,8	0,0	7,5	12,1
6,3	0,0	0,0	18,1	19,1	11,2	13,5	5,6	0,0	7,3
0,0	20,0	0,0	11,1	0,0	0,0	12,1	0,0	12,1	8,2
									
3,1	3,1	4,5	4,0	3,4	2,7	4,7	3,5	2,9	4,1
